50
237 104 397 155 67 402 918 801 766 222 537 277 173 107 215 928 829 807 801 194 310 627 732 855 881 87 606 672 506 178 474 90 935 866 548 301 909 573 883 849 509 414 599 432 162 306 813 44 47 627 
437 304 597 355 267 702 1218 1001 966 522 737 477 373 307 415 1128 1029 1007 1001 394 510 827 1032 1055 1081 287 906 972 706 378 774 390 1135 1066 748 501 1109 773 1083 1049 709 714 799 732 462 606 1013 244 247 827 
12258
